letting numberCities be 24
letting distances be function (
(1,1) --> 0,
(1,2) --> 257,
(1,3) --> 187,
(1,4) --> 91,
(1,5) --> 150,
(1,6) --> 80,
(1,7) --> 130,
(1,8) --> 134,
(1,9) --> 243,
(1,10) --> 185,
(1,11) --> 214,
(1,12) --> 70,
(1,13) --> 272,
(1,14) --> 219,
(1,15) --> 293,
(1,16) --> 54,
(1,17) --> 211,
(1,18) --> 290,
(1,19) --> 268,
(1,20) --> 261,
(1,21) --> 175,
(1,22) --> 250,
(1,23) --> 192,
(1,24) --> 121,
(2,1) --> 257,
(2,2) --> 0,
(2,3) --> 196,
(2,4) --> 228,
(2,5) --> 112,
(2,6) --> 196,
(2,7) --> 167,
(2,8) --> 154,
(2,9) --> 209,
(2,10) --> 86,
(2,11) --> 223,
(2,12) --> 191,
(2,13) --> 180,
(2,14) --> 83,
(2,15) --> 50,
(2,16) --> 219,
(2,17) --> 74,
(2,18) --> 139,
(2,19) --> 53,
(2,20) --> 43,
(2,21) --> 128,
(2,22) --> 99,
(2,23) --> 228,
(2,24) --> 142,
(3,1) --> 187,
(3,2) --> 196,
(3,3) --> 0,
(3,4) --> 158,
(3,5) --> 96,
(3,6) --> 88,
(3,7) --> 59,
(3,8) --> 63,
(3,9) --> 286,
(3,10) --> 124,
(3,11) --> 49,
(3,12) --> 121,
(3,13) --> 315,
(3,14) --> 172,
(3,15) --> 232,
(3,16) --> 92,
(3,17) --> 81,
(3,18) --> 98,
(3,19) --> 138,
(3,20) --> 200,
(3,21) --> 76,
(3,22) --> 89,
(3,23) --> 235,
(3,24) --> 99,
(4,1) --> 91,
(4,2) --> 228,
(4,3) --> 158,
(4,4) --> 0,
(4,5) --> 120,
(4,6) --> 77,
(4,7) --> 101,
(4,8) --> 105,
(4,9) --> 159,
(4,10) --> 156,
(4,11) --> 185,
(4,12) --> 27,
(4,13) --> 188,
(4,14) --> 149,
(4,15) --> 264,
(4,16) --> 82,
(4,17) --> 182,
(4,18) --> 261,
(4,19) --> 239,
(4,20) --> 232,
(4,21) --> 146,
(4,22) --> 221,
(4,23) --> 108,
(4,24) --> 84,
(5,1) --> 150,
(5,2) --> 112,
(5,3) --> 96,
(5,4) --> 120,
(5,5) --> 0,
(5,6) --> 63,
(5,7) --> 56,
(5,8) --> 34,
(5,9) --> 190,
(5,10) --> 40,
(5,11) --> 123,
(5,12) --> 83,
(5,13) --> 193,
(5,14) --> 79,
(5,15) --> 148,
(5,16) --> 119,
(5,17) --> 105,
(5,18) --> 144,
(5,19) --> 123,
(5,20) --> 98,
(5,21) --> 32,
(5,22) --> 105,
(5,23) --> 119,
(5,24) --> 35,
(6,1) --> 80,
(6,2) --> 196,
(6,3) --> 88,
(6,4) --> 77,
(6,5) --> 63,
(6,6) --> 0,
(6,7) --> 25,
(6,8) --> 29,
(6,9) --> 216,
(6,10) --> 124,
(6,11) --> 115,
(6,12) --> 47,
(6,13) --> 245,
(6,14) --> 139,
(6,15) --> 232,
(6,16) --> 31,
(6,17) --> 150,
(6,18) --> 176,
(6,19) --> 207,
(6,20) --> 200,
(6,21) --> 76,
(6,22) --> 189,
(6,23) --> 165,
(6,24) --> 29,
(7,1) --> 130,
(7,2) --> 167,
(7,3) --> 59,
(7,4) --> 101,
(7,5) --> 56,
(7,6) --> 25,
(7,7) --> 0,
(7,8) --> 22,
(7,9) --> 229,
(7,10) --> 95,
(7,11) --> 86,
(7,12) --> 64,
(7,13) --> 258,
(7,14) --> 134,
(7,15) --> 203,
(7,16) --> 43,
(7,17) --> 121,
(7,18) --> 164,
(7,19) --> 178,
(7,20) --> 171,
(7,21) --> 47,
(7,22) --> 160,
(7,23) --> 178,
(7,24) --> 42,
(8,1) --> 134,
(8,2) --> 154,
(8,3) --> 63,
(8,4) --> 105,
(8,5) --> 34,
(8,6) --> 29,
(8,7) --> 22,
(8,8) --> 0,
(8,9) --> 225,
(8,10) --> 82,
(8,11) --> 90,
(8,12) --> 68,
(8,13) --> 228,
(8,14) --> 112,
(8,15) --> 190,
(8,16) --> 58,
(8,17) --> 108,
(8,18) --> 136,
(8,19) --> 165,
(8,20) --> 131,
(8,21) --> 30,
(8,22) --> 147,
(8,23) --> 154,
(8,24) --> 36,
(9,1) --> 243,
(9,2) --> 209,
(9,3) --> 286,
(9,4) --> 159,
(9,5) --> 190,
(9,6) --> 216,
(9,7) --> 229,
(9,8) --> 225,
(9,9) --> 0,
(9,10) --> 207,
(9,11) --> 313,
(9,12) --> 173,
(9,13) --> 29,
(9,14) --> 126,
(9,15) --> 248,
(9,16) --> 238,
(9,17) --> 310,
(9,18) --> 389,
(9,19) --> 367,
(9,20) --> 166,
(9,21) --> 222,
(9,22) --> 349,
(9,23) --> 71,
(9,24) --> 220,
(10,1) --> 185,
(10,2) --> 86,
(10,3) --> 124,
(10,4) --> 156,
(10,5) --> 40,
(10,6) --> 124,
(10,7) --> 95,
(10,8) --> 82,
(10,9) --> 207,
(10,10) --> 0,
(10,11) --> 151,
(10,12) --> 119,
(10,13) --> 159,
(10,14) --> 62,
(10,15) --> 122,
(10,16) --> 147,
(10,17) --> 37,
(10,18) --> 116,
(10,19) --> 86,
(10,20) --> 90,
(10,21) --> 56,
(10,22) --> 76,
(10,23) --> 136,
(10,24) --> 70,
(11,1) --> 214,
(11,2) --> 223,
(11,3) --> 49,
(11,4) --> 185,
(11,5) --> 123,
(11,6) --> 115,
(11,7) --> 86,
(11,8) --> 90,
(11,9) --> 313,
(11,10) --> 151,
(11,11) --> 0,
(11,12) --> 148,
(11,13) --> 342,
(11,14) --> 199,
(11,15) --> 259,
(11,16) --> 84,
(11,17) --> 160,
(11,18) --> 147,
(11,19) --> 187,
(11,20) --> 227,
(11,21) --> 103,
(11,22) --> 138,
(11,23) --> 262,
(11,24) --> 126,
(12,1) --> 70,
(12,2) --> 191,
(12,3) --> 121,
(12,4) --> 27,
(12,5) --> 83,
(12,6) --> 47,
(12,7) --> 64,
(12,8) --> 68,
(12,9) --> 173,
(12,10) --> 119,
(12,11) --> 148,
(12,12) --> 0,
(12,13) --> 209,
(12,14) --> 153,
(12,15) --> 227,
(12,16) --> 53,
(12,17) --> 145,
(12,18) --> 224,
(12,19) --> 202,
(12,20) --> 195,
(12,21) --> 109,
(12,22) --> 184,
(12,23) --> 110,
(12,24) --> 55,
(13,1) --> 272,
(13,2) --> 180,
(13,3) --> 315,
(13,4) --> 188,
(13,5) --> 193,
(13,6) --> 245,
(13,7) --> 258,
(13,8) --> 228,
(13,9) --> 29,
(13,10) --> 159,
(13,11) --> 342,
(13,12) --> 209,
(13,13) --> 0,
(13,14) --> 97,
(13,15) --> 219,
(13,16) --> 267,
(13,17) --> 196,
(13,18) --> 275,
(13,19) --> 227,
(13,20) --> 137,
(13,21) --> 225,
(13,22) --> 235,
(13,23) --> 74,
(13,24) --> 249,
(14,1) --> 219,
(14,2) --> 83,
(14,3) --> 172,
(14,4) --> 149,
(14,5) --> 79,
(14,6) --> 139,
(14,7) --> 134,
(14,8) --> 112,
(14,9) --> 126,
(14,10) --> 62,
(14,11) --> 199,
(14,12) --> 153,
(14,13) --> 97,
(14,14) --> 0,
(14,15) --> 134,
(14,16) --> 170,
(14,17) --> 99,
(14,18) --> 178,
(14,19) --> 130,
(14,20) --> 69,
(14,21) --> 104,
(14,22) --> 138,
(14,23) --> 96,
(14,24) --> 104,
(15,1) --> 293,
(15,2) --> 50,
(15,3) --> 232,
(15,4) --> 264,
(15,5) --> 148,
(15,6) --> 232,
(15,7) --> 203,
(15,8) --> 190,
(15,9) --> 248,
(15,10) --> 122,
(15,11) --> 259,
(15,12) --> 227,
(15,13) --> 219,
(15,14) --> 134,
(15,15) --> 0,
(15,16) --> 255,
(15,17) --> 125,
(15,18) --> 154,
(15,19) --> 68,
(15,20) --> 82,
(15,21) --> 164,
(15,22) --> 114,
(15,23) --> 264,
(15,24) --> 178,
(16,1) --> 54,
(16,2) --> 219,
(16,3) --> 92,
(16,4) --> 82,
(16,5) --> 119,
(16,6) --> 31,
(16,7) --> 43,
(16,8) --> 58,
(16,9) --> 238,
(16,10) --> 147,
(16,11) --> 84,
(16,12) --> 53,
(16,13) --> 267,
(16,14) --> 170,
(16,15) --> 255,
(16,16) --> 0,
(16,17) --> 173,
(16,18) --> 190,
(16,19) --> 230,
(16,20) --> 223,
(16,21) --> 99,
(16,22) --> 212,
(16,23) --> 187,
(16,24) --> 60,
(17,1) --> 211,
(17,2) --> 74,
(17,3) --> 81,
(17,4) --> 182,
(17,5) --> 105,
(17,6) --> 150,
(17,7) --> 121,
(17,8) --> 108,
(17,9) --> 310,
(17,10) --> 37,
(17,11) --> 160,
(17,12) --> 145,
(17,13) --> 196,
(17,14) --> 99,
(17,15) --> 125,
(17,16) --> 173,
(17,17) --> 0,
(17,18) --> 79,
(17,19) --> 57,
(17,20) --> 90,
(17,21) --> 57,
(17,22) --> 39,
(17,23) --> 182,
(17,24) --> 96,
(18,1) --> 290,
(18,2) --> 139,
(18,3) --> 98,
(18,4) --> 261,
(18,5) --> 144,
(18,6) --> 176,
(18,7) --> 164,
(18,8) --> 136,
(18,9) --> 389,
(18,10) --> 116,
(18,11) --> 147,
(18,12) --> 224,
(18,13) --> 275,
(18,14) --> 178,
(18,15) --> 154,
(18,16) --> 190,
(18,17) --> 79,
(18,18) --> 0,
(18,19) --> 86,
(18,20) --> 176,
(18,21) --> 112,
(18,22) --> 40,
(18,23) --> 261,
(18,24) --> 175,
(19,1) --> 268,
(19,2) --> 53,
(19,3) --> 138,
(19,4) --> 239,
(19,5) --> 123,
(19,6) --> 207,
(19,7) --> 178,
(19,8) --> 165,
(19,9) --> 367,
(19,10) --> 86,
(19,11) --> 187,
(19,12) --> 202,
(19,13) --> 227,
(19,14) --> 130,
(19,15) --> 68,
(19,16) --> 230,
(19,17) --> 57,
(19,18) --> 86,
(19,19) --> 0,
(19,20) --> 90,
(19,21) --> 114,
(19,22) --> 46,
(19,23) --> 239,
(19,24) --> 153,
(20,1) --> 261,
(20,2) --> 43,
(20,3) --> 200,
(20,4) --> 232,
(20,5) --> 98,
(20,6) --> 200,
(20,7) --> 171,
(20,8) --> 131,
(20,9) --> 166,
(20,10) --> 90,
(20,11) --> 227,
(20,12) --> 195,
(20,13) --> 137,
(20,14) --> 69,
(20,15) --> 82,
(20,16) --> 223,
(20,17) --> 90,
(20,18) --> 176,
(20,19) --> 90,
(20,20) --> 0,
(20,21) --> 134,
(20,22) --> 136,
(20,23) --> 165,
(20,24) --> 146,
(21,1) --> 175,
(21,2) --> 128,
(21,3) --> 76,
(21,4) --> 146,
(21,5) --> 32,
(21,6) --> 76,
(21,7) --> 47,
(21,8) --> 30,
(21,9) --> 222,
(21,10) --> 56,
(21,11) --> 103,
(21,12) --> 109,
(21,13) --> 225,
(21,14) --> 104,
(21,15) --> 164,
(21,16) --> 99,
(21,17) --> 57,
(21,18) --> 112,
(21,19) --> 114,
(21,20) --> 134,
(21,21) --> 0,
(21,22) --> 96,
(21,23) --> 151,
(21,24) --> 47,
(22,1) --> 250,
(22,2) --> 99,
(22,3) --> 89,
(22,4) --> 221,
(22,5) --> 105,
(22,6) --> 189,
(22,7) --> 160,
(22,8) --> 147,
(22,9) --> 349,
(22,10) --> 76,
(22,11) --> 138,
(22,12) --> 184,
(22,13) --> 235,
(22,14) --> 138,
(22,15) --> 114,
(22,16) --> 212,
(22,17) --> 39,
(22,18) --> 40,
(22,19) --> 46,
(22,20) --> 136,
(22,21) --> 96,
(22,22) --> 0,
(22,23) --> 221,
(22,24) --> 135,
(23,1) --> 192,
(23,2) --> 228,
(23,3) --> 235,
(23,4) --> 108,
(23,5) --> 119,
(23,6) --> 165,
(23,7) --> 178,
(23,8) --> 154,
(23,9) --> 71,
(23,10) --> 136,
(23,11) --> 262,
(23,12) --> 110,
(23,13) --> 74,
(23,14) --> 96,
(23,15) --> 264,
(23,16) --> 187,
(23,17) --> 182,
(23,18) --> 261,
(23,19) --> 239,
(23,20) --> 165,
(23,21) --> 151,
(23,22) --> 221,
(23,23) --> 0,
(23,24) --> 169,
(24,1) --> 121,
(24,2) --> 142,
(24,3) --> 99,
(24,4) --> 84,
(24,5) --> 35,
(24,6) --> 29,
(24,7) --> 42,
(24,8) --> 36,
(24,9) --> 220,
(24,10) --> 70,
(24,11) --> 126,
(24,12) --> 55,
(24,13) --> 249,
(24,14) --> 104,
(24,15) --> 178,
(24,16) --> 60,
(24,17) --> 96,
(24,18) --> 175,
(24,19) --> 153,
(24,20) --> 146,
(24,21) --> 47,
(24,22) --> 135,
(24,23) --> 169,
(24,24) --> 0)
